p wcnf 129 155 156 
1 -8 124 0 
1 -112 -54 0 
1 76 112 0 
1 100 -18 0 
1 -61 34 0 
1 59 -84 0 
1 83 -48 0 
1 -48 7 0 
1 28 -48 0 
1 28 69 0 
1 58 123 0 
1 35 -52 0 
1 109 -10 0 
1 -117 -121 0 
1 -36 -103 0 
1 112 26 0 
1 9 -14 0 
1 -22 11 0 
1 108 -55 0 
1 -78 71 0 
1 -89 -83 0 
1 -58 -113 0 
1 120 35 0 
1 34 -70 0 
1 49 58 0 
1 4 56 0 
1 108 -18 0 
1 12 -65 0 
1 -64 -44 0 
1 -11 -76 0 
1 -111 -4 0 
1 -129 -59 0 
1 32 -37 0 
1 15 87 0 
1 56 -17 0 
1 105 49 0 
1 94 -12 0 
1 15 -115 0 
1 76 9 0 
1 -91 79 0 
1 -89 -35 0 
1 26 -126 0 
1 -113 55 0 
1 65 51 0 
1 -60 58 0 
1 -101 127 0 
1 -124 -112 0 
1 -114 44 0 
1 -90 -6 0 
1 21 20 0 
1 74 -107 0 
1 56 22 0 
1 115 58 0 
1 -56 119 0 
1 -122 -25 0 
1 108 -117 0 
1 61 -37 0 
1 -7 -88 0 
1 33 104 0 
1 34 115 0 
1 40 -110 0 
1 -72 -20 0 
1 40 117 0 
1 54 65 0 
1 45 -22 0 
1 126 -102 0 
1 -35 42 0 
1 -9 -77 0 
1 -91 -32 0 
1 62 -31 0 
1 58 69 0 
1 -33 -27 0 
1 39 28 0 
1 -1 -92 0 
1 -118 -59 0 
1 45 -1 0 
1 9 65 0 
1 46 1 0 
1 -53 46 0 
1 5 74 0 
1 14 99 0 
1 121 -88 0 
1 69 -32 0 
1 97 -74 0 
1 -113 -124 0 
1 26 53 0 
1 76 -93 0 
1 121 49 0 
1 -117 -75 0 
1 -66 23 0 
1 66 -4 0 
1 34 61 0 
1 -114 73 0 
1 -21 -63 0 
1 124 -112 0 
1 89 41 0 
1 99 34 0 
1 -14 63 0 
1 113 -77 0 
1 -59 46 0 
1 -39 -42 0 
1 58 -15 0 
1 -87 16 0 
1 -94 7 0 
1 14 -106 0 
1 4 96 0 
1 56 -44 0 
1 78 -125 0 
1 22 -115 0 
1 128 86 0 
1 -6 46 0 
1 -54 77 0 
1 -91 -101 0 
1 -57 -70 0 
1 -123 92 0 
1 -76 -24 0 
1 -92 19 0 
1 49 29 0 
1 -120 -104 0 
1 -6 65 0 
1 -51 -87 0 
1 91 -122 0 
1 79 105 0 
1 -92 -85 0 
1 -1 12 0 
1 -116 24 0 
1 -119 9 0 
1 -88 10 0 
1 -81 127 0 
1 113 -31 0 
1 3 -71 0 
1 109 -23 0 
1 43 -99 0 
1 -89 -110 0 
1 -117 9 0 
1 -43 103 0 
1 47 20 0 
1 -48 23 0 
1 -95 42 0 
1 -7 17 0 
1 -90 -63 0 
1 46 -121 0 
1 117 5 0 
1 -78 125 0 
1 18 8 0 
1 -35 -86 0 
1 -39 123 0 
1 -118 74 0 
1 128 57 0 
1 -44 122 0 
1 -5 64 0 
1 -51 -120 0 
1 94 -47 0 
1 -95 -15 0 
1 -105 64 0 
